
;this file is automatically generated: Tue Mar 02 16:20:03 CST 2021

;declarations generated

(declare-fun kbd303295_59cf_4e79_bea2_f143aa8978ec () Int)
(declare-fun oclExcludes ( Int Int) Bool)
(declare-fun obj_3c242d89_2bb6_4ee5_b83c_d32db11d0925 ( Int) Int)
(declare-fun Cardinality ( Int) Int)
(declare-fun class12_Class12IntAttr1 ( Int) Int)
(declare-fun type_4b28603e_905d_44ea_8b88_798238f9bcab_Class2 ( Int) Bool)
(declare-fun type_4b28603e_905d_44ea_8b88_798238f9bcab_Class3 ( Int) Bool)
(declare-fun type_4b28603e_905d_44ea_8b88_798238f9bcab_Class0 ( Int) Bool)
(declare-fun type_4b28603e_905d_44ea_8b88_798238f9bcab_Class1 ( Int) Bool)
(declare-fun type_4b28603e_905d_44ea_8b88_798238f9bcab_Class6 ( Int) Bool)
(declare-fun type_4b28603e_905d_44ea_8b88_798238f9bcab_Class7 ( Int) Bool)
(declare-fun type_4b28603e_905d_44ea_8b88_798238f9bcab_Class4 ( Int) Bool)
(declare-fun type_4b28603e_905d_44ea_8b88_798238f9bcab_Class5 ( Int) Bool)
(declare-fun type_4b28603e_905d_44ea_8b88_798238f9bcab_Class8 ( Int) Bool)
(declare-fun type_4b28603e_905d_44ea_8b88_798238f9bcab_Class9 ( Int) Bool)
(declare-fun k13ace7b7_cb05_43b5_8e18_db7bd6f26967 () Int)
(declare-fun oclSelect ( Int Bool) Int)
(declare-fun type_4b28603e_905d_44ea_8b88_798238f9bcab_Class21 ( Int) Bool)
(declare-fun type_4b28603e_905d_44ea_8b88_798238f9bcab_Class20 ( Int) Bool)
(declare-fun type_4b28603e_905d_44ea_8b88_798238f9bcab_Class12 ( Int) Bool)
(declare-fun type_4b28603e_905d_44ea_8b88_798238f9bcab_Class11 ( Int) Bool)
(declare-fun type_4b28603e_905d_44ea_8b88_798238f9bcab_Class14 ( Int) Bool)
(declare-fun type_4b28603e_905d_44ea_8b88_798238f9bcab_Class13 ( Int) Bool)
(declare-fun type_4b28603e_905d_44ea_8b88_798238f9bcab_Class16 ( Int) Bool)
(declare-fun type_4b28603e_905d_44ea_8b88_798238f9bcab_Class15 ( Int) Bool)
(declare-fun type_4b28603e_905d_44ea_8b88_798238f9bcab_Class18 ( Int) Bool)
(declare-fun type_4b28603e_905d_44ea_8b88_798238f9bcab_Class17 ( Int) Bool)
(declare-fun type_4b28603e_905d_44ea_8b88_798238f9bcab_Class19 ( Int) Bool)
(declare-fun type_4b28603e_905d_44ea_8b88_798238f9bcab_Class10 ( Int) Bool)
(declare-fun type_4b28603e_905d_44ea_8b88_798238f9bcab_Class23 ( Int) Bool)
(declare-fun type_4b28603e_905d_44ea_8b88_798238f9bcab_Class22 ( Int) Bool)
(declare-fun type_4b28603e_905d_44ea_8b88_798238f9bcab_Class25 ( Int) Bool)
(declare-fun type_4b28603e_905d_44ea_8b88_798238f9bcab_Class24 ( Int) Bool)
(declare-fun type_4b28603e_905d_44ea_8b88_798238f9bcab_Class27 ( Int) Bool)
(declare-fun type_4b28603e_905d_44ea_8b88_798238f9bcab_Class26 ( Int) Bool)
(declare-fun type_4b28603e_905d_44ea_8b88_798238f9bcab_Class29 ( Int) Bool)
(declare-fun type_4b28603e_905d_44ea_8b88_798238f9bcab_Class28 ( Int) Bool)
(declare-fun Enum0 ( Int) Int)
(declare-fun Enum1 ( Int) Int)
(declare-fun Enum2 ( Int) Int)
(declare-fun class5_Class5BoolAttr0 ( Int) Bool)
(declare-fun container_ ( Int) Int)
(declare-fun rel_e032bdd8_1f43_4db3_8ef6_33aea185d182_Class5_Class12 ( Int Int) Bool)
(declare-fun oclIncludes ( Int Int) Bool)
(declare-fun class5_Class5IntAttr1 ( Int) Int)
(declare-fun class5_Class5IntAttr2 ( Int) Int)
(declare-fun ObjAt ( Int Int) Int)

;formula(s) generated
(assert (forall ((p Int)) (=> ( type_4b28603e_905d_44ea_8b88_798238f9bcab_Class5 p )  (and (>= ( Enum0 ( obj_3c242d89_2bb6_4ee5_b83c_d32db11d0925 p )  )  0) (<= ( Enum0 ( obj_3c242d89_2bb6_4ee5_b83c_d32db11d0925 p )  )  3)))))
(assert (forall ((x Int)(y Int)) (=> (and ( rel_e032bdd8_1f43_4db3_8ef6_33aea185d182_Class5_Class12 ( obj_3c242d89_2bb6_4ee5_b83c_d32db11d0925 x )   ( obj_3c242d89_2bb6_4ee5_b83c_d32db11d0925 y )  )  (and ( type_4b28603e_905d_44ea_8b88_798238f9bcab_Class5 x )  ( type_4b28603e_905d_44ea_8b88_798238f9bcab_Class12 y ) )) (or (or (or (= (* ( Cardinality ( container_ x )  )  0) (* ( Cardinality ( container_ y )  )  1)) (and (= (* ( Cardinality ( container_ y )  )  1) (* ( Cardinality ( container_ x )  )  k13ace7b7_cb05_43b5_8e18_db7bd6f26967)) (>= k13ace7b7_cb05_43b5_8e18_db7bd6f26967 0))) (= (* ( Cardinality ( container_ x )  )  0) (* ( Cardinality ( container_ y )  )  2))) (and (= (* ( Cardinality ( container_ y )  )  2) (* ( Cardinality ( container_ x )  )  kbd303295_59cf_4e79_bea2_f143aa8978ec)) (>= kbd303295_59cf_4e79_bea2_f143aa8978ec 0))))))
(assert (! (or (forall ((c5_2 Int)(c5_1 Int)) (=> (and ( type_4b28603e_905d_44ea_8b88_798238f9bcab_Class5 c5_1 )  ( type_4b28603e_905d_44ea_8b88_798238f9bcab_Class5 c5_2 ) ) (< ( class5_Class5IntAttr1 ( obj_3c242d89_2bb6_4ee5_b83c_d32db11d0925 c5_1 )  )  ( class5_Class5IntAttr2 ( obj_3c242d89_2bb6_4ee5_b83c_d32db11d0925 c5_2 )  ) ))) (forall ((v Int)) (=> ( type_4b28603e_905d_44ea_8b88_798238f9bcab_Class5 v )  (not (= ( Enum0 ( obj_3c242d89_2bb6_4ee5_b83c_d32db11d0925 v )  )  1) )))):named l0))
(assert (! (forall ((c5_1 Int)) (=> ( type_4b28603e_905d_44ea_8b88_798238f9bcab_Class5 c5_1 )  (forall ((c12_1 Int)) (=> (and ( type_4b28603e_905d_44ea_8b88_798238f9bcab_Class12 c12_1 )  ( rel_e032bdd8_1f43_4db3_8ef6_33aea185d182_Class5_Class12 ( obj_3c242d89_2bb6_4ee5_b83c_d32db11d0925 c5_1 )   ( obj_3c242d89_2bb6_4ee5_b83c_d32db11d0925 c12_1 )  ) ) (< ( class5_Class5IntAttr1 ( obj_3c242d89_2bb6_4ee5_b83c_d32db11d0925 c5_1 )  )  ( class12_Class12IntAttr1 ( obj_3c242d89_2bb6_4ee5_b83c_d32db11d0925 c12_1 )  ) ))))):named l1))
(assert (! (or (forall ((v Int)) (=> ( type_4b28603e_905d_44ea_8b88_798238f9bcab_Class5 v )  (not ( class5_Class5BoolAttr0 ( obj_3c242d89_2bb6_4ee5_b83c_d32db11d0925 v )  )  ))) (forall ((v Int)) (=> ( type_4b28603e_905d_44ea_8b88_798238f9bcab_Class5 v )  (= ( class5_Class5IntAttr2 ( obj_3c242d89_2bb6_4ee5_b83c_d32db11d0925 v )  )  2)))):named l2))
(assert (! (exists ((o Int)) (and ( type_4b28603e_905d_44ea_8b88_798238f9bcab_Class0 ( obj_3c242d89_2bb6_4ee5_b83c_d32db11d0925 o )  )  ( type_4b28603e_905d_44ea_8b88_798238f9bcab_Class25 ( obj_3c242d89_2bb6_4ee5_b83c_d32db11d0925 o )  ) )):named c0))
(assert (! (exists ((o Int)) ( type_4b28603e_905d_44ea_8b88_798238f9bcab_Class1 ( obj_3c242d89_2bb6_4ee5_b83c_d32db11d0925 o )  ) ):named c1))
(assert (! (exists ((o Int)) ( type_4b28603e_905d_44ea_8b88_798238f9bcab_Class10 ( obj_3c242d89_2bb6_4ee5_b83c_d32db11d0925 o )  ) ):named c2))
(assert (! (exists ((o Int)) ( type_4b28603e_905d_44ea_8b88_798238f9bcab_Class11 ( obj_3c242d89_2bb6_4ee5_b83c_d32db11d0925 o )  ) ):named c3))
(assert (! (exists ((o Int)) ( type_4b28603e_905d_44ea_8b88_798238f9bcab_Class12 ( obj_3c242d89_2bb6_4ee5_b83c_d32db11d0925 o )  ) ):named c4))
(assert (! (exists ((o Int)) (and (and ( type_4b28603e_905d_44ea_8b88_798238f9bcab_Class13 ( obj_3c242d89_2bb6_4ee5_b83c_d32db11d0925 o )  )  ( type_4b28603e_905d_44ea_8b88_798238f9bcab_Class25 ( obj_3c242d89_2bb6_4ee5_b83c_d32db11d0925 o )  ) ) ( type_4b28603e_905d_44ea_8b88_798238f9bcab_Class0 ( obj_3c242d89_2bb6_4ee5_b83c_d32db11d0925 o )  ) )):named c5))
(assert (! (exists ((o Int)) (and (and ( type_4b28603e_905d_44ea_8b88_798238f9bcab_Class14 ( obj_3c242d89_2bb6_4ee5_b83c_d32db11d0925 o )  )  ( type_4b28603e_905d_44ea_8b88_798238f9bcab_Class25 ( obj_3c242d89_2bb6_4ee5_b83c_d32db11d0925 o )  ) ) ( type_4b28603e_905d_44ea_8b88_798238f9bcab_Class17 ( obj_3c242d89_2bb6_4ee5_b83c_d32db11d0925 o )  ) )):named c6))
(assert (! (exists ((o Int)) ( type_4b28603e_905d_44ea_8b88_798238f9bcab_Class15 ( obj_3c242d89_2bb6_4ee5_b83c_d32db11d0925 o )  ) ):named c7))
(assert (! (exists ((o Int)) ( type_4b28603e_905d_44ea_8b88_798238f9bcab_Class16 ( obj_3c242d89_2bb6_4ee5_b83c_d32db11d0925 o )  ) ):named c8))
(assert (! (exists ((o Int)) (and ( type_4b28603e_905d_44ea_8b88_798238f9bcab_Class17 ( obj_3c242d89_2bb6_4ee5_b83c_d32db11d0925 o )  )  ( type_4b28603e_905d_44ea_8b88_798238f9bcab_Class25 ( obj_3c242d89_2bb6_4ee5_b83c_d32db11d0925 o )  ) )):named c9))
(assert (! (exists ((o Int)) (and (and ( type_4b28603e_905d_44ea_8b88_798238f9bcab_Class18 ( obj_3c242d89_2bb6_4ee5_b83c_d32db11d0925 o )  )  ( type_4b28603e_905d_44ea_8b88_798238f9bcab_Class25 ( obj_3c242d89_2bb6_4ee5_b83c_d32db11d0925 o )  ) ) ( type_4b28603e_905d_44ea_8b88_798238f9bcab_Class17 ( obj_3c242d89_2bb6_4ee5_b83c_d32db11d0925 o )  ) )):named c10))
(assert (! (exists ((o Int)) ( type_4b28603e_905d_44ea_8b88_798238f9bcab_Class19 ( obj_3c242d89_2bb6_4ee5_b83c_d32db11d0925 o )  ) ):named c11))
(assert (! (exists ((o Int)) ( type_4b28603e_905d_44ea_8b88_798238f9bcab_Class2 ( obj_3c242d89_2bb6_4ee5_b83c_d32db11d0925 o )  ) ):named c12))
(assert (! (exists ((o Int)) ( type_4b28603e_905d_44ea_8b88_798238f9bcab_Class20 ( obj_3c242d89_2bb6_4ee5_b83c_d32db11d0925 o )  ) ):named c13))
(assert (! (exists ((o Int)) (and (and (and ( type_4b28603e_905d_44ea_8b88_798238f9bcab_Class21 ( obj_3c242d89_2bb6_4ee5_b83c_d32db11d0925 o )  )  ( type_4b28603e_905d_44ea_8b88_798238f9bcab_Class25 ( obj_3c242d89_2bb6_4ee5_b83c_d32db11d0925 o )  ) ) ( type_4b28603e_905d_44ea_8b88_798238f9bcab_Class13 ( obj_3c242d89_2bb6_4ee5_b83c_d32db11d0925 o )  ) ) ( type_4b28603e_905d_44ea_8b88_798238f9bcab_Class0 ( obj_3c242d89_2bb6_4ee5_b83c_d32db11d0925 o )  ) )):named c14))
(assert (! (exists ((o Int)) ( type_4b28603e_905d_44ea_8b88_798238f9bcab_Class22 ( obj_3c242d89_2bb6_4ee5_b83c_d32db11d0925 o )  ) ):named c15))
(assert (! (exists ((o Int)) (and (and (and (and ( type_4b28603e_905d_44ea_8b88_798238f9bcab_Class23 ( obj_3c242d89_2bb6_4ee5_b83c_d32db11d0925 o )  )  ( type_4b28603e_905d_44ea_8b88_798238f9bcab_Class25 ( obj_3c242d89_2bb6_4ee5_b83c_d32db11d0925 o )  ) ) ( type_4b28603e_905d_44ea_8b88_798238f9bcab_Class13 ( obj_3c242d89_2bb6_4ee5_b83c_d32db11d0925 o )  ) ) ( type_4b28603e_905d_44ea_8b88_798238f9bcab_Class0 ( obj_3c242d89_2bb6_4ee5_b83c_d32db11d0925 o )  ) ) ( type_4b28603e_905d_44ea_8b88_798238f9bcab_Class21 ( obj_3c242d89_2bb6_4ee5_b83c_d32db11d0925 o )  ) )):named c16))
(assert (! (exists ((o Int)) (and (and ( type_4b28603e_905d_44ea_8b88_798238f9bcab_Class24 ( obj_3c242d89_2bb6_4ee5_b83c_d32db11d0925 o )  )  ( type_4b28603e_905d_44ea_8b88_798238f9bcab_Class25 ( obj_3c242d89_2bb6_4ee5_b83c_d32db11d0925 o )  ) ) ( type_4b28603e_905d_44ea_8b88_798238f9bcab_Class0 ( obj_3c242d89_2bb6_4ee5_b83c_d32db11d0925 o )  ) )):named c17))
(assert (! (exists ((o Int)) ( type_4b28603e_905d_44ea_8b88_798238f9bcab_Class25 ( obj_3c242d89_2bb6_4ee5_b83c_d32db11d0925 o )  ) ):named c18))
(assert (! (exists ((o Int)) ( type_4b28603e_905d_44ea_8b88_798238f9bcab_Class26 ( obj_3c242d89_2bb6_4ee5_b83c_d32db11d0925 o )  ) ):named c19))
(assert (! (exists ((o Int)) (and (and ( type_4b28603e_905d_44ea_8b88_798238f9bcab_Class27 ( obj_3c242d89_2bb6_4ee5_b83c_d32db11d0925 o )  )  ( type_4b28603e_905d_44ea_8b88_798238f9bcab_Class25 ( obj_3c242d89_2bb6_4ee5_b83c_d32db11d0925 o )  ) ) ( type_4b28603e_905d_44ea_8b88_798238f9bcab_Class17 ( obj_3c242d89_2bb6_4ee5_b83c_d32db11d0925 o )  ) )):named c20))
(assert (! (exists ((o Int)) (and (and (and (and ( type_4b28603e_905d_44ea_8b88_798238f9bcab_Class28 ( obj_3c242d89_2bb6_4ee5_b83c_d32db11d0925 o )  )  ( type_4b28603e_905d_44ea_8b88_798238f9bcab_Class25 ( obj_3c242d89_2bb6_4ee5_b83c_d32db11d0925 o )  ) ) ( type_4b28603e_905d_44ea_8b88_798238f9bcab_Class13 ( obj_3c242d89_2bb6_4ee5_b83c_d32db11d0925 o )  ) ) ( type_4b28603e_905d_44ea_8b88_798238f9bcab_Class0 ( obj_3c242d89_2bb6_4ee5_b83c_d32db11d0925 o )  ) ) ( type_4b28603e_905d_44ea_8b88_798238f9bcab_Class21 ( obj_3c242d89_2bb6_4ee5_b83c_d32db11d0925 o )  ) )):named c21))
(assert (! (exists ((o Int)) ( type_4b28603e_905d_44ea_8b88_798238f9bcab_Class29 ( obj_3c242d89_2bb6_4ee5_b83c_d32db11d0925 o )  ) ):named c22))
(assert (! (exists ((o Int)) ( type_4b28603e_905d_44ea_8b88_798238f9bcab_Class3 ( obj_3c242d89_2bb6_4ee5_b83c_d32db11d0925 o )  ) ):named c23))
(assert (! (exists ((o Int)) (and (and (and (and ( type_4b28603e_905d_44ea_8b88_798238f9bcab_Class4 ( obj_3c242d89_2bb6_4ee5_b83c_d32db11d0925 o )  )  ( type_4b28603e_905d_44ea_8b88_798238f9bcab_Class25 ( obj_3c242d89_2bb6_4ee5_b83c_d32db11d0925 o )  ) ) ( type_4b28603e_905d_44ea_8b88_798238f9bcab_Class24 ( obj_3c242d89_2bb6_4ee5_b83c_d32db11d0925 o )  ) ) ( type_4b28603e_905d_44ea_8b88_798238f9bcab_Class6 ( obj_3c242d89_2bb6_4ee5_b83c_d32db11d0925 o )  ) ) ( type_4b28603e_905d_44ea_8b88_798238f9bcab_Class0 ( obj_3c242d89_2bb6_4ee5_b83c_d32db11d0925 o )  ) )):named c24))
(assert (! (exists ((o Int)) ( type_4b28603e_905d_44ea_8b88_798238f9bcab_Class5 ( obj_3c242d89_2bb6_4ee5_b83c_d32db11d0925 o )  ) ):named c25))
(assert (! (exists ((o Int)) (and (and (and ( type_4b28603e_905d_44ea_8b88_798238f9bcab_Class6 ( obj_3c242d89_2bb6_4ee5_b83c_d32db11d0925 o )  )  ( type_4b28603e_905d_44ea_8b88_798238f9bcab_Class25 ( obj_3c242d89_2bb6_4ee5_b83c_d32db11d0925 o )  ) ) ( type_4b28603e_905d_44ea_8b88_798238f9bcab_Class24 ( obj_3c242d89_2bb6_4ee5_b83c_d32db11d0925 o )  ) ) ( type_4b28603e_905d_44ea_8b88_798238f9bcab_Class0 ( obj_3c242d89_2bb6_4ee5_b83c_d32db11d0925 o )  ) )):named c26))
(assert (! (exists ((o Int)) ( type_4b28603e_905d_44ea_8b88_798238f9bcab_Class7 ( obj_3c242d89_2bb6_4ee5_b83c_d32db11d0925 o )  ) ):named c27))
(assert (! (exists ((o Int)) ( type_4b28603e_905d_44ea_8b88_798238f9bcab_Class8 ( obj_3c242d89_2bb6_4ee5_b83c_d32db11d0925 o )  ) ):named c28))
(assert (! (exists ((o Int)) ( type_4b28603e_905d_44ea_8b88_798238f9bcab_Class9 ( obj_3c242d89_2bb6_4ee5_b83c_d32db11d0925 o )  ) ):named c29))

 ;end of formula 